NAME          
ROWS
 N  OBJ
 L  c1
COLUMNS
    MARKER    'MARKER'                 'INTORG'
    x[1]      c1        498
    x[1]      OBJ       -455
    x[2]      c1        325
    x[2]      OBJ       -418
    x[3]      c1        263
    x[3]      OBJ       -225
    x[4]      c1        875
    x[4]      OBJ       -933
    x[5]      c1        831
    x[5]      OBJ       -766
    x[6]      c1        856
    x[6]      OBJ       -934
    x[7]      c1        296
    x[7]      OBJ       -197
    x[8]      c1        663
    x[8]      OBJ       -723
    x[9]      c1        727
    x[9]      OBJ       -811
    x[10]     c1        224
    x[10]     OBJ       -253
    x[11]     c1        772
    x[11]     OBJ       -842
    x[12]     c1        268
    x[12]     OBJ       -185
    x[13]     c1        707
    x[13]     OBJ       -795
    x[14]     c1        38
    x[14]     OBJ       -25
    x[15]     c1        112
    x[15]     OBJ       -163
    x[16]     c1        875
    x[16]     OBJ       -920
    x[17]     c1        631
    x[17]     OBJ       -605
    x[18]     c1        343
    x[18]     OBJ       -392
    x[19]     c1        952
    x[19]     OBJ       -922
    x[20]     c1        448
    x[20]     OBJ       -387
    x[21]     c1        499
    x[21]     OBJ       -538
    x[22]     c1        1057
    x[22]     OBJ       -970
    x[23]     c1        720
    x[23]     OBJ       -794
    x[24]     c1        656
    x[24]     OBJ       -707
    x[25]     c1        291
    x[25]     OBJ       -338
    x[26]     OBJ       -88
    x[27]     c1        285
    x[27]     OBJ       -367
    x[28]     c1        256
    x[28]     OBJ       -323
    x[29]     c1        107
    x[29]     OBJ       -29
    x[30]     c1        812
    x[30]     OBJ       -869
RHS
    rhs       c1        7694
RANGES
BOUNDS
 LO bounds    x[1]      0
 PL bounds    x[1]
 LO bounds    x[2]      0
 PL bounds    x[2]
 LO bounds    x[3]      0
 PL bounds    x[3]
 LO bounds    x[4]      0
 PL bounds    x[4]
 LO bounds    x[5]      0
 PL bounds    x[5]
 LO bounds    x[6]      0
 PL bounds    x[6]
 LO bounds    x[7]      0
 PL bounds    x[7]
 LO bounds    x[8]      0
 PL bounds    x[8]
 LO bounds    x[9]      0
 PL bounds    x[9]
 LO bounds    x[10]     0
 PL bounds    x[10]
 LO bounds    x[11]     0
 PL bounds    x[11]
 LO bounds    x[12]     0
 PL bounds    x[12]
 LO bounds    x[13]     0
 PL bounds    x[13]
 LO bounds    x[14]     0
 PL bounds    x[14]
 LO bounds    x[15]     0
 PL bounds    x[15]
 LO bounds    x[16]     0
 PL bounds    x[16]
 LO bounds    x[17]     0
 PL bounds    x[17]
 LO bounds    x[18]     0
 PL bounds    x[18]
 LO bounds    x[19]     0
 PL bounds    x[19]
 LO bounds    x[20]     0
 PL bounds    x[20]
 LO bounds    x[21]     0
 PL bounds    x[21]
 LO bounds    x[22]     0
 PL bounds    x[22]
 LO bounds    x[23]     0
 PL bounds    x[23]
 LO bounds    x[24]     0
 PL bounds    x[24]
 LO bounds    x[25]     0
 PL bounds    x[25]
 LO bounds    x[26]     0
 PL bounds    x[26]
 LO bounds    x[27]     0
 PL bounds    x[27]
 LO bounds    x[28]     0
 PL bounds    x[28]
 LO bounds    x[29]     0
 PL bounds    x[29]
 LO bounds    x[30]     0
 PL bounds    x[30]
ENDATA
